p tdp 37 67
21 25
10 35
9 31
5 13
2 37
7 29
18 24
1 11
3 24
21 31
1 20
16 18
22 36
1 4
28 36
7 30
12 32
19 31
13 14
17 19
8 33
6 36
4 27
31 35
4 18
8 28
34 37
3 31
15 34
1 33
5 23
31 32
15 17
8 13
8 30
26 36
10 23
10 25
2 6
2 30
26 35
10 33
8 18
2 3
1 23
13 15
10 20
14 28
29 32
4 17
19 20
5 9
1 19
6 23
12 34
1 13
18 33
22 37
18 29
23 26
30 33
10 11
2 12
27 37
4 12
1 28
20 31
